BAYES
144
2 2 2 2 2 2 2 2 2 2 2 2 2 2 2 2 2 2 2 2 2 2 2 2 2 2 2 2 2 2 2 2 2 2 2 2 2 2 2 2 2 2 2 2 2 2 2 2 2 2 2 2 2 2 2 2 2 2 2 2 2 2 2 2 2 2 2 2 2 2 2 2 2 2 2 2 2 2 2 2 2 2 2 2 2 2 2 2 2 2 2 2 2 2 2 2 2 2 2 2 2 2 2 2 2 2 2 2 2 2 2 2 2 2 2 2 2 2 2 2 2 2 2 2 2 2 2 2 2 2 2 2 2 2 2 2 2 2 2 2 2 2 2 2
144
3 1 12 0
3 2 13 1
3 3 14 2
3 4 15 3
3 5 16 4
3 6 17 5
3 7 18 6
3 8 19 7
3 9 20 8
3 10 21 9
3 11 22 10
2 12 11
3 13 24 12
3 14 25 13
3 15 26 14
3 16 27 15
3 17 28 16
3 18 29 17
3 19 30 18
3 20 31 19
3 21 32 20
3 22 33 21
3 23 34 22
2 24 23
3 25 36 24
3 26 37 25
3 27 38 26
3 28 39 27
3 29 40 28
3 30 41 29
3 31 42 30
3 32 43 31
3 33 44 32
3 34 45 33
3 35 46 34
2 36 35
3 37 48 36
3 38 49 37
3 39 50 38
3 40 51 39
3 41 52 40
3 42 53 41
3 43 54 42
3 44 55 43
3 45 56 44
3 46 57 45
3 47 58 46
2 48 47
3 49 60 48
3 50 61 49
3 51 62 50
3 52 63 51
3 53 64 52
3 54 65 53
3 55 66 54
3 56 67 55
3 57 68 56
3 58 69 57
3 59 70 58
2 60 59
3 61 72 60
3 62 73 61
3 63 74 62
3 64 75 63
3 65 76 64
3 66 77 65
3 67 78 66
3 68 79 67
3 69 80 68
3 70 81 69
3 71 82 70
2 72 71
3 73 84 72
3 74 85 73
3 75 86 74
3 76 87 75
3 77 88 76
3 78 89 77
3 79 90 78
3 80 91 79
3 81 92 80
3 82 93 81
3 83 94 82
2 84 83
3 85 96 84
3 86 97 85
3 87 98 86
3 88 99 87
3 89 100 88
3 90 101 89
3 91 102 90
3 92 103 91
3 93 104 92
3 94 105 93
3 95 106 94
2 96 95
3 97 108 96
3 98 109 97
3 99 110 98
3 100 111 99
3 101 112 100
3 102 113 101
3 103 114 102
3 104 115 103
3 105 116 104
3 106 117 105
3 107 118 106
2 108 107
3 109 120 108
3 110 121 109
3 111 122 110
3 112 123 111
3 113 124 112
3 114 125 113
3 115 126 114
3 116 127 115
3 117 128 116
3 118 129 117
3 119 130 118
2 120 119
3 121 132 120
3 122 133 121
3 123 134 122
3 124 135 123
3 125 136 124
3 126 137 125
3 127 138 126
3 128 139 127
3 129 140 128
3 130 141 129
3 131 142 130
2 132 131
2 144 132
2 145 133
2 146 134
2 147 135
2 148 136
2 149 137
2 150 138
2 151 139
2 152 140
2 153 141
2 154 142
1  143
8
0 1 1 0 0 1 0 1
8
0.17718472980171573 0.8228152701982843 0.37162389406763846 0.6283761059323615 0.8847462115363404 0.11525378846365965 0.08577731726902085 0.9142226827309792
8
1 0 1 0 1 0 0 1
8
0.8812885995974489 0.11871140040255115 0.39900816497375274 0.6009918350262472 0.0640787132928418 0.9359212867071582 0.058877402608307164 0.9411225973916928
8
1 0 0 1 1 0 1 0
8
1 0 0 1 0 1 1 0
8
0 1 0 1 0 1 0 1
8
1 0 0 1 0 1 1 0
8
0 1 1 0 1 0 1 0
8
1 0 0 1 0 1 1 0
8
1 0 0 1 1 0 0 1
4
1 0 0 1
8
0.5460975596261658 0.45390244037383415 0.8599819882644849 0.1400180117355151 0.4189897002914885 0.5810102997085115 0.8943699742700897 0.10563002572991033
8
0 1 1 0 0 1 1 0
8
0 1 1 0 0 1 0 1
8
1 0 1 0 1 0 0 1
8
0 1 0 1 1 0 1 0
8
0 1 1 0 0 1 1 0
8
0.6016004456464874 0.3983995543535126 0.3901061746381805 0.6098938253618196 0.08344099592485611 0.9165590040751439 0.6292373044723533 0.3707626955276468
8
0 1 0 1 0 1 0 1
8
0 1 1 0 1 0 0 1
8
0 1 1 0 1 0 1 0
8
0.6191865652608025 0.3808134347391975 0.917542446610979 0.08245755338902104 0.6344614828646069 0.36553851713539315 0.5798766959330296 0.42012330406697046
4
0 1 1 0
8
0 1 0 1 0 1 1 0
8
0 1 0 1 1 0 1 0
8
0 1 0 1 1 0 0 1
8
0 1 1 0 0 1 0 1
8
1 0 0 1 1 0 0 1
8
1 0 1 0 1 0 0 1
8
1 0 0 1 0 1 1 0
8
1 0 1 0 1 0 0 1
8
0 1 1 0 0 1 1 0
8
1 0 0 1 1 0 1 0
8
0 1 0 1 1 0 0 1
4
1 0 1 0
8
1 0 1 0 0 1 0 1
8
0 1 0 1 0 1 0 1
8
1 0 1 0 0 1 0 1
8
0 1 0 1 0 1 1 0
8
0 1 0 1 1 0 1 0
8
0 1 0 1 0 1 1 0
8
0 1 1 0 0 1 0 1
8
1 0 1 0 1 0 1 0
8
0 1 1 0 1 0 1 0
8
0 1 0 1 0 1 1 0
8
1 0 1 0 1 0 0 1
4
1 0 0 1
8
1 0 0 1 0 1 1 0
8
1 0 0 1 1 0 0 1
8
1 0 0 1 0 1 0 1
8
1 0 1 0 1 0 0 1
8
1 0 1 0 0 1 1 0
8
1 0 0 1 0 1 0 1
8
0 1 1 0 1 0 1 0
8
0 1 1 0 0 1 0 1
8
0 1 1 0 0 1 1 0
8
1 0 0 1 0 1 1 0
8
1 0 0 1 0 1 0 1
4
1 0 1 0
8
1 0 0 1 1 0 0 1
8
0 1 1 0 0 1 1 0
8
1 0 1 0 0 1 0 1
8
1 0 1 0 1 0 1 0
8
1 0 1 0 1 0 0 1
8
0.03070825312260364 0.9692917468773963 0.49312856760673696 0.506871432393263 0.08788692914280123 0.9121130708571987 0.6221044478338199 0.37789555216618004
8
1 0 1 0 1 0 0 1
8
0 1 1 0 0 1 0 1
8
0 1 1 0 0 1 1 0
8
0 1 0 1 0 1 0 1
8
0 1 0 1 1 0 1 0
4
0.11633483108762299 0.883665168912377 0.29840302340629915 0.7015969765937008
8
0 1 1 0 1 0 0 1
8
1 0 1 0 1 0 1 0
8
1 0 1 0 0 1 0 1
8
0 1 0 1 1 0 1 0
8
0.3211602164097207 0.6788397835902792 0.8176362134496018 0.18236378655039817 0.05874209096154104 0.941257909038459 0.9841087585636779 0.01589124143632218
8
0 1 1 0 1 0 1 0
8
1 0 0 1 0 1 0 1
8
0 1 0 1 0 1 0 1
8
0 1 1 0 1 0 1 0
8
1 0 1 0 0 1 1 0
8
0 1 1 0 1 0 1 0
4
0 1 1 0
8
1 0 1 0 0 1 0 1
8
1 0 0 1 1 0 0 1
8
1 0 0 1 1 0 0 1
8
0.45659140558885053 0.5434085944111494 0.04136962160510369 0.9586303783948963 0.9682665599328779 0.031733440067122115 0.48853635142796764 0.5114636485720324
8
1 0 0 1 0 1 1 0
8
0 1 1 0 0 1 1 0
8
0 1 0 1 1 0 1 0
8
0 1 1 0 1 0 1 0
8
0 1 0 1 1 0 1 0
8
1 0 0 1 0 1 0 1
8
0 1 1 0 1 0 0 1
4
0 1 0 1
8
0.4861622158828118 0.5138377841171882 0.9144487483807728 0.08555125161922719 0.7194767810299773 0.2805232189700227 0.19379823531698065 0.8062017646830194
8
0 1 1 0 0 1 0 1
8
1 0 0 1 0 1 1 0
8
0.5082514973875407 0.4917485026124592 0.6081371671220326 0.3918628328779674 0.28829610706022113 0.7117038929397789 0.019609811013657823 0.9803901889863422
8
1 0 0 1 0 1 1 0
8
0 1 0 1 1 0 0 1
8
1 0 0 1 1 0 1 0
8
0 1 0 1 1 0 1 0
8
1 0 1 0 0 1 1 0
8
0 1 1 0 0 1 1 0
8
1 0 1 0 0 1 1 0
4
1 0 0 1
8
0.8728196549142457 0.12718034508575424 0.06810919612390079 0.9318908038760992 0.4801018653538289 0.5198981346461711 0.07672235983155896 0.923277640168441
8
0 1 0 1 1 0 0 1
8
0 1 0 1 0 1 0 1
8
1 0 0 1 1 0 1 0
8
0 1 0 1 1 0 0 1
8
1 0 0 1 1 0 0 1
8
0 1 1 0 0 1 0 1
8
0 1 1 0 1 0 0 1
8
1 0 1 0 1 0 1 0
8
0 1 1 0 1 0 1 0
8
0.35756149032928064 0.6424385096707194 0.5060367303838923 0.49396326961610776 0.37222672714583693 0.6277732728541631 0.9210599956289647 0.07894000437103534
4
1 0 1 0
8
0 1 0 1 1 0 0 1
8
1 0 1 0 1 0 0 1
8
0 1 1 0 1 0 1 0
8
0 1 0 1 0 1 0 1
8
0 1 0 1 0 1 0 1
8
0 1 0 1 0 1 0 1
8
1 0 0 1 1 0 0 1
8
0 1 0 1 1 0 0 1
8
0 1 0 1 0 1 1 0
8
0 1 1 0 0 1 0 1
8
0 1 0 1 1 0 1 0
4
0 1 1 0
4
0.3902651846662278 0.6097348153337723 0.36717618641341776 0.6328238135865822
4
0 1 1 0
4
1 0 0 1
4
0 1 0 1
4
1 0 1 0
4
0 1 0 1
4
1 0 0 1
4
1 0 1 0
4
0 1 0 1
4
0.4716165020901599 0.5283834979098401 0.2815552759730124 0.7184447240269877
4
0 1 0 1
2
1 0
